% Auto-generated by scripts/generate_dzn.py
% problem_type   = regex
% instance       = regex_45
% source_json    = instances_json/1_medium_blowup/regex_45.json
% blowup         = 3.076923076923077
% representation = DFA

mode = 0;

var_count = 15;
n_constraints = 2;
Q = 34;
S = 3;
q0 = [1, 1];
F = [{22, 23, 24, 25, 26, 27, 28, 29, 30, 31, 32, 33, 34}, {5}];
weights = [5, 2, 1, 5, 3, 3, 6, 7, 3, 4, 9, 3, 4, 4, 1];
d_dfa = array3d(1..2, 1..34, 1..3, [
  % k = 1
    1, 1, 2,
    1, 3, 2,
    5, 5, 4,
    7, 8, 6,
    7, 7, 6,
    10, 11, 9,
    10, 10, 9,
    13, 13, 12,
    15, 16, 14,
    15, 15, 14,
    18, 18, 17,
    20, 21, 19,
    20, 20, 19,
    23, 24, 22,
    23, 23, 22,
    26, 26, 25,
    28, 29, 27,
    28, 28, 27,
    31, 32, 30,
    31, 31, 30,
    34, 34, 33,
    1, 3, 2,
    1, 1, 2,
    5, 5, 4,
    7, 8, 6,
    7, 7, 6,
    10, 11, 9,
    10, 10, 9,
    13, 13, 12,
    15, 16, 14,
    15, 15, 14,
    18, 18, 17,
    20, 21, 19,
    20, 20, 19,

  % k = 2
    2, 1, 1,
    3, 2, 2,
    4, 3, 3,
    5, 4, 4,
    6, 5, 5,
    6, 6, 6,
    0, 0, 0,
    0, 0, 0,
    0, 0, 0,
    0, 0, 0,
    0, 0, 0,
    0, 0, 0,
    0, 0, 0,
    0, 0, 0,
    0, 0, 0,
    0, 0, 0,
    0, 0, 0,
    0, 0, 0,
    0, 0, 0,
    0, 0, 0,
    0, 0, 0,
    0, 0, 0,
    0, 0, 0,
    0, 0, 0,
    0, 0, 0,
    0, 0, 0,
    0, 0, 0,
    0, 0, 0,
    0, 0, 0,
    0, 0, 0,
    0, 0, 0,
    0, 0, 0,
    0, 0, 0,
    0, 0, 0
]);
d_nfa = array3d(1..2, 1..34, 1..3, [
  % k = 1
    {}, {}, {},
    {}, {}, {},
    {}, {}, {},
    {}, {}, {},
    {}, {}, {},
    {}, {}, {},
    {}, {}, {},
    {}, {}, {},
    {}, {}, {},
    {}, {}, {},
    {}, {}, {},
    {}, {}, {},
    {}, {}, {},
    {}, {}, {},
    {}, {}, {},
    {}, {}, {},
    {}, {}, {},
    {}, {}, {},
    {}, {}, {},
    {}, {}, {},
    {}, {}, {},
    {}, {}, {},
    {}, {}, {},
    {}, {}, {},
    {}, {}, {},
    {}, {}, {},
    {}, {}, {},
    {}, {}, {},
    {}, {}, {},
    {}, {}, {},
    {}, {}, {},
    {}, {}, {},
    {}, {}, {},
    {}, {}, {},

  % k = 2
    {}, {}, {},
    {}, {}, {},
    {}, {}, {},
    {}, {}, {},
    {}, {}, {},
    {}, {}, {},
    {}, {}, {},
    {}, {}, {},
    {}, {}, {},
    {}, {}, {},
    {}, {}, {},
    {}, {}, {},
    {}, {}, {},
    {}, {}, {},
    {}, {}, {},
    {}, {}, {},
    {}, {}, {},
    {}, {}, {},
    {}, {}, {},
    {}, {}, {},
    {}, {}, {},
    {}, {}, {},
    {}, {}, {},
    {}, {}, {},
    {}, {}, {},
    {}, {}, {},
    {}, {}, {},
    {}, {}, {},
    {}, {}, {},
    {}, {}, {},
    {}, {}, {},
    {}, {}, {},
    {}, {}, {},
    {}, {}, {}
]);
